
Gurobi 7.5.1 (win64, Python) logging started 11/19/17 23:35:03

Academic license - for non-commercial use only

Gurobi 7.5.2 (linux64, Python) logging started Mon Nov 20 15:44:43 2017

Academic license - for non-commercial use only
